216404
73,0,86,43,27,26,9,58,65,75,57,42,78,90,59,95,93,69,100,6,32,31,62,50,3,14,74,21,61,63,15,19,16,20,76,55,97,28,29,87,105,41,18,88,11,92,22,56,91,7,96,54,4,12,5,45,64,30,51,68,39,89,71,81,99,44,24,85,80,8,13,46,98,67,60,17,38,35,37,103,104,2,77,53,10,70,84,40,94,66,36,83,52,48,72,47,1,34,102,49,25,79,33,82,101,23